robust/generate/spp_dkp_Lefebvre_et_al_2026/src/shortest_path_6_2.kp
44
115

[4.0 0.5 3.57 1.73 1.72 2.92 1.89 1.96 2.44 3.4 4.6 2.19 2.05 0.54 1.04 4.59 4.52 4.23 3.1 1.02 3.05 0.67 2.2 4.19]

[77 11 77 60 43 49 76 61 89 51 39 58 30 7 29 17 74 56 11 28 57 88 80 100]
