robust/generate/spp_dkp_Lefebvre_et_al_2026/src/shortest_path_6_2.lp
\ Model sp_6_2
\ LP format - for model browsing. Use MPS format to capture full model detail.
\ Signature: 0x1a3fed327f855427
Minimize
  28.6 y[0,1] + 58.14 y[0,2] + 38.21 y[0,3] + 64.76 y[0,4] + 57.27 y[0,5]
   + 28.6 y[1,0] + 64.51 y[1,3] + 58.14 y[2,0] + 34.53 y[2,3]
   + 29.83 y[2,4] + 16.12 y[2,5] + 38.21 y[3,0] + 64.51 y[3,1]
   + 34.53 y[3,2] + 27.31 y[3,4] + 24.41 y[3,5] + 64.76 y[4,0]
   + 29.83 y[4,2] + 27.31 y[4,3] + 14.21 y[4,5] + 57.27 y[5,0]
   + 16.12 y[5,2] + 24.41 y[5,3] + 14.21 y[5,4] + 2.86 r[0,1]
   + 5.814 r[0,2] + 3.821 r[0,3] + 6.476 r[0,4] + 5.727 r[0,5]
   + 2.86 r[1,0] + 6.451 r[1,3] + 5.814 r[2,0] + 3.453 r[2,3]
   + 2.983 r[2,4] + 1.612 r[2,5] + 3.821 r[3,0] + 6.451 r[3,1]
   + 3.453 r[3,2] + 2.731 r[3,4] + 2.441 r[3,5] + 6.476 r[4,0]
   + 2.983 r[4,2] + 2.731 r[4,3] + 1.421 r[4,5] + 5.727 r[5,0]
   + 1.612 r[5,2] + 2.441 r[5,3] + 1.421 r[5,4]
Subject To
 flow_cons_inner_nodes[0]: - y[0,1] - y[0,2] - y[0,3] - y[0,4] - y[0,5]
   + y[1,0] + y[2,0] + y[3,0] + y[4,0] + y[5,0] = 0
 flow_cons_inner_nodes[2]: y[0,2] - y[2,0] - y[2,3] - y[2,4] - y[2,5]
   + y[3,2] + y[4,2] + y[5,2] = 0
 flow_cons_inner_nodes[3]: y[0,3] + y[1,3] + y[2,3] - y[3,0] - y[3,1]
   - y[3,2] - y[3,4] - y[3,5] + y[4,3] + y[5,3] = 0
 flow_cons_inner_nodes[5]: y[0,5] + y[2,5] + y[3,5] + y[4,5] - y[5,0]
   - y[5,2] - y[5,3] - y[5,4] = 0
 flow_cons_source: - y[0,1] + y[1,0] + y[1,3] - y[3,1] = 1
 flow_cons_target: y[0,4] + y[2,4] + y[3,4] - y[4,0] - y[4,2] - y[4,3]
   - y[4,5] + y[5,4] = 1
 primal_lower: - 4 y[0,1] - 0.5 y[0,2] - 3.57 y[0,3] - 1.73 y[0,4]
   - 1.72 y[0,5] - 2.92 y[1,0] - 1.89 y[1,3] - 1.96 y[2,0] - 2.44 y[2,3]
   - 3.4 y[2,4] - 4.6 y[2,5] - 2.19 y[3,0] - 2.05 y[3,1] - 0.54 y[3,2]
   - 1.04 y[3,4] - 4.59 y[3,5] - 4.52 y[4,0] - 4.23 y[4,2] - 3.1 y[4,3]
   - 1.02 y[4,5] - 3.05 y[5,0] - 0.67 y[5,2] - 2.2 y[5,3] - 4.19 y[5,4]
   + 77 u[0,1] + 11 u[0,2] + 77 u[0,3] + 60 u[0,4] + 43 u[0,5] + 49 u[1,0]
   + 76 u[1,3] + 61 u[2,0] + 89 u[2,3] + 51 u[2,4] + 39 u[2,5] + 58 u[3,0]
   + 30 u[3,1] + 7 u[3,2] + 29 u[3,4] + 17 u[3,5] + 74 u[4,0] + 56 u[4,2]
   + 11 u[4,3] + 28 u[4,5] + 57 u[5,0] + 88 u[5,2] + 80 u[5,3] + 100 u[5,4]
   <= 115
 mccormick1[0,1]: - u[0,1] + r[0,1] <= 0
 mccormick1[0,2]: - u[0,2] + r[0,2] <= 0
 mccormick1[0,3]: - u[0,3] + r[0,3] <= 0
 mccormick1[0,4]: - u[0,4] + r[0,4] <= 0
 mccormick1[0,5]: - u[0,5] + r[0,5] <= 0
 mccormick1[1,0]: - u[1,0] + r[1,0] <= 0
 mccormick1[1,3]: - u[1,3] + r[1,3] <= 0
 mccormick1[2,0]: - u[2,0] + r[2,0] <= 0
 mccormick1[2,3]: - u[2,3] + r[2,3] <= 0
 mccormick1[2,4]: - u[2,4] + r[2,4] <= 0
 mccormick1[2,5]: - u[2,5] + r[2,5] <= 0
 mccormick1[3,0]: - u[3,0] + r[3,0] <= 0
 mccormick1[3,1]: - u[3,1] + r[3,1] <= 0
 mccormick1[3,2]: - u[3,2] + r[3,2] <= 0
 mccormick1[3,4]: - u[3,4] + r[3,4] <= 0
 mccormick1[3,5]: - u[3,5] + r[3,5] <= 0
 mccormick1[4,0]: - u[4,0] + r[4,0] <= 0
 mccormick1[4,2]: - u[4,2] + r[4,2] <= 0
 mccormick1[4,3]: - u[4,3] + r[4,3] <= 0
 mccormick1[4,5]: - u[4,5] + r[4,5] <= 0
 mccormick1[5,0]: - u[5,0] + r[5,0] <= 0
 mccormick1[5,2]: - u[5,2] + r[5,2] <= 0
 mccormick1[5,3]: - u[5,3] + r[5,3] <= 0
 mccormick1[5,4]: - u[5,4] + r[5,4] <= 0
 mccormick2[0,1]: - y[0,1] + r[0,1] <= 0
 mccormick2[0,2]: - y[0,2] + r[0,2] <= 0
 mccormick2[0,3]: - y[0,3] + r[0,3] <= 0
 mccormick2[0,4]: - y[0,4] + r[0,4] <= 0
 mccormick2[0,5]: - y[0,5] + r[0,5] <= 0
 mccormick2[1,0]: - y[1,0] + r[1,0] <= 0
 mccormick2[1,3]: - y[1,3] + r[1,3] <= 0
 mccormick2[2,0]: - y[2,0] + r[2,0] <= 0
 mccormick2[2,3]: - y[2,3] + r[2,3] <= 0
 mccormick2[2,4]: - y[2,4] + r[2,4] <= 0
 mccormick2[2,5]: - y[2,5] + r[2,5] <= 0
 mccormick2[3,0]: - y[3,0] + r[3,0] <= 0
 mccormick2[3,1]: - y[3,1] + r[3,1] <= 0
 mccormick2[3,2]: - y[3,2] + r[3,2] <= 0
 mccormick2[3,4]: - y[3,4] + r[3,4] <= 0
 mccormick2[3,5]: - y[3,5] + r[3,5] <= 0
 mccormick2[4,0]: - y[4,0] + r[4,0] <= 0
 mccormick2[4,2]: - y[4,2] + r[4,2] <= 0
 mccormick2[4,3]: - y[4,3] + r[4,3] <= 0
 mccormick2[4,5]: - y[4,5] + r[4,5] <= 0
 mccormick2[5,0]: - y[5,0] + r[5,0] <= 0
 mccormick2[5,2]: - y[5,2] + r[5,2] <= 0
 mccormick2[5,3]: - y[5,3] + r[5,3] <= 0
 mccormick2[5,4]: - y[5,4] + r[5,4] <= 0
 mccormick3[0,1]: - y[0,1] - u[0,1] + r[0,1] >= -1
 mccormick3[0,2]: - y[0,2] - u[0,2] + r[0,2] >= -1
 mccormick3[0,3]: - y[0,3] - u[0,3] + r[0,3] >= -1
 mccormick3[0,4]: - y[0,4] - u[0,4] + r[0,4] >= -1
 mccormick3[0,5]: - y[0,5] - u[0,5] + r[0,5] >= -1
 mccormick3[1,0]: - y[1,0] - u[1,0] + r[1,0] >= -1
 mccormick3[1,3]: - y[1,3] - u[1,3] + r[1,3] >= -1
 mccormick3[2,0]: - y[2,0] - u[2,0] + r[2,0] >= -1
 mccormick3[2,3]: - y[2,3] - u[2,3] + r[2,3] >= -1
 mccormick3[2,4]: - y[2,4] - u[2,4] + r[2,4] >= -1
 mccormick3[2,5]: - y[2,5] - u[2,5] + r[2,5] >= -1
 mccormick3[3,0]: - y[3,0] - u[3,0] + r[3,0] >= -1
 mccormick3[3,1]: - y[3,1] - u[3,1] + r[3,1] >= -1
 mccormick3[3,2]: - y[3,2] - u[3,2] + r[3,2] >= -1
 mccormick3[3,4]: - y[3,4] - u[3,4] + r[3,4] >= -1
 mccormick3[3,5]: - y[3,5] - u[3,5] + r[3,5] >= -1
 mccormick3[4,0]: - y[4,0] - u[4,0] + r[4,0] >= -1
 mccormick3[4,2]: - y[4,2] - u[4,2] + r[4,2] >= -1
 mccormick3[4,3]: - y[4,3] - u[4,3] + r[4,3] >= -1
 mccormick3[4,5]: - y[4,5] - u[4,5] + r[4,5] >= -1
 mccormick3[5,0]: - y[5,0] - u[5,0] + r[5,0] >= -1
 mccormick3[5,2]: - y[5,2] - u[5,2] + r[5,2] >= -1
 mccormick3[5,3]: - y[5,3] - u[5,3] + r[5,3] >= -1
 mccormick3[5,4]: - y[5,4] - u[5,4] + r[5,4] >= -1
Bounds
Binaries
 y[0,1] y[0,2] y[0,3] y[0,4] y[0,5] y[1,0] y[1,3] y[2,0] y[2,3] y[2,4]
 y[2,5] y[3,0] y[3,1] y[3,2] y[3,4] y[3,5] y[4,0] y[4,2] y[4,3] y[4,5]
 y[5,0] y[5,2] y[5,3] y[5,4] u[0,1] u[0,2] u[0,3] u[0,4] u[0,5] u[1,0]
 u[1,3] u[2,0] u[2,3] u[2,4] u[2,5] u[3,0] u[3,1] u[3,2] u[3,4] u[3,5]
 u[4,0] u[4,2] u[4,3] u[4,5] u[5,0] u[5,2] u[5,3] u[5,4] r[0,1] r[0,2]
 r[0,3] r[0,4] r[0,5] r[1,0] r[1,3] r[2,0] r[2,3] r[2,4] r[2,5] r[3,0]
 r[3,1] r[3,2] r[3,4] r[3,5] r[4,0] r[4,2] r[4,3] r[4,5] r[5,0] r[5,2]
 r[5,3] r[5,4]
End
